c Generated map
c Size: 10 * 10, weights in range: 1 to 10, walls: False, with ratio 0.0
c dim 1 of 6
c
p sp 100 180
c graph contains 100 nodes and 180 arcs
c
a 1 11 8
a 11 1 8
a 1 2 7
a 2 1 7
a 2 12 4
a 12 2 4
a 2 3 8
a 3 2 8
a 3 13 4
a 13 3 4
a 3 4 2
a 4 3 2
a 4 14 3
a 14 4 3
a 4 5 7
a 5 4 7
a 5 15 7
a 15 5 7
a 5 6 6
a 6 5 6
a 6 16 4
a 16 6 4
a 6 7 9
a 7 6 9
a 7 17 7
a 17 7 7
a 7 8 4
a 8 7 4
a 8 18 10
a 18 8 10
a 8 9 1
a 9 8 1
a 9 19 8
a 19 9 8
a 9 10 3
a 10 9 3
a 10 20 5
a 20 10 5
a 11 21 5
a 21 11 5
a 11 12 10
a 12 11 10
a 12 22 3
a 22 12 3
a 12 13 3
a 13 12 3
a 13 23 9
a 23 13 9
a 13 14 7
a 14 13 7
a 14 24 2
a 24 14 2
a 14 15 8
a 15 14 8
a 15 25 2
a 25 15 2
a 15 16 10
a 16 15 10
a 16 26 9
a 26 16 9
a 16 17 5
a 17 16 5
a 17 27 2
a 27 17 2
a 17 18 10
a 18 17 10
a 18 28 4
a 28 18 4
a 18 19 2
a 19 18 2
a 19 29 6
a 29 19 6
a 19 20 7
a 20 19 7
a 20 30 2
a 30 20 2
a 21 31 9
a 31 21 9
a 21 22 4
a 22 21 4
a 22 32 2
a 32 22 2
a 22 23 8
a 23 22 8
a 23 33 10
a 33 23 10
a 23 24 4
a 24 23 4
a 24 34 6
a 34 24 6
a 24 25 6
a 25 24 6
a 25 35 8
a 35 25 8
a 25 26 6
a 26 25 6
a 26 36 9
a 36 26 9
a 26 27 3
a 27 26 3
a 27 37 6
a 37 27 6
a 27 28 6
a 28 27 6
a 28 38 7
a 38 28 7
a 28 29 10
a 29 28 10
a 29 39 8
a 39 29 8
a 29 30 5
a 30 29 5
a 30 40 10
a 40 30 10
a 31 41 2
a 41 31 2
a 31 32 2
a 32 31 2
a 32 42 3
a 42 32 3
a 32 33 7
a 33 32 7
a 33 43 2
a 43 33 2
a 33 34 8
a 34 33 8
a 34 44 9
a 44 34 9
a 34 35 7
a 35 34 7
a 35 45 3
a 45 35 3
a 35 36 4
a 36 35 4
a 36 46 9
a 46 36 9
a 36 37 10
a 37 36 10
a 37 47 5
a 47 37 5
a 37 38 5
a 38 37 5
a 38 48 6
a 48 38 6
a 38 39 6
a 39 38 6
a 39 49 8
a 49 39 8
a 39 40 2
a 40 39 2
a 40 50 8
a 50 40 8
a 41 51 7
a 51 41 7
a 41 42 1
a 42 41 1
a 42 52 3
a 52 42 3
a 42 43 6
a 43 42 6
a 43 53 10
a 53 43 10
a 43 44 5
a 44 43 5
a 44 54 1
a 54 44 1
a 44 45 6
a 45 44 6
a 45 55 10
a 55 45 10
a 45 46 1
a 46 45 1
a 46 56 1
a 56 46 1
a 46 47 7
a 47 46 7
a 47 57 7
a 57 47 7
a 47 48 5
a 48 47 5
a 48 58 5
a 58 48 5
a 48 49 5
a 49 48 5
a 49 59 8
a 59 49 8
a 49 50 4
a 50 49 4
a 50 60 8
a 60 50 8
a 51 61 10
a 61 51 10
a 51 52 8
a 52 51 8
a 52 62 2
a 62 52 2
a 52 53 9
a 53 52 9
a 53 63 4
a 63 53 4
a 53 54 6
a 54 53 6
a 54 64 1
a 64 54 1
a 54 55 7
a 55 54 7
a 55 65 6
a 65 55 6
a 55 56 2
a 56 55 2
a 56 66 4
a 66 56 4
a 56 57 8
a 57 56 8
a 57 67 9
a 67 57 9
a 57 58 1
a 58 57 1
a 58 68 5
a 68 58 5
a 58 59 9
a 59 58 9
a 59 69 4
a 69 59 4
a 59 60 10
a 60 59 10
a 60 70 4
a 70 60 4
a 61 71 5
a 71 61 5
a 61 62 3
a 62 61 3
a 62 72 4
a 72 62 4
a 62 63 10
a 63 62 10
a 63 73 9
a 73 63 9
a 63 64 4
a 64 63 4
a 64 74 2
a 74 64 2
a 64 65 7
a 65 64 7
a 65 75 7
a 75 65 7
a 65 66 9
a 66 65 9
a 66 76 3
a 76 66 3
a 66 67 9
a 67 66 9
a 67 77 9
a 77 67 9
a 67 68 9
a 68 67 9
a 68 78 9
a 78 68 9
a 68 69 9
a 69 68 9
a 69 79 2
a 79 69 2
a 69 70 1
a 70 69 1
a 70 80 1
a 80 70 1
a 71 81 6
a 81 71 6
a 71 72 5
a 72 71 5
a 72 82 5
a 82 72 5
a 72 73 6
a 73 72 6
a 73 83 3
a 83 73 3
a 73 74 2
a 74 73 2
a 74 84 9
a 84 74 9
a 74 75 2
a 75 74 2
a 75 85 2
a 85 75 2
a 75 76 10
a 76 75 10
a 76 86 3
a 86 76 3
a 76 77 6
a 77 76 6
a 77 87 2
a 87 77 2
a 77 78 4
a 78 77 4
a 78 88 10
a 88 78 10
a 78 79 4
a 79 78 4
a 79 89 5
a 89 79 5
a 79 80 1
a 80 79 1
a 80 90 3
a 90 80 3
a 81 91 10
a 91 81 10
a 81 82 7
a 82 81 7
a 82 92 2
a 92 82 2
a 82 83 6
a 83 82 6
a 83 93 3
a 93 83 3
a 83 84 4
a 84 83 4
a 84 94 8
a 94 84 8
a 84 85 4
a 85 84 4
a 85 95 6
a 95 85 6
a 85 86 9
a 86 85 9
a 86 96 9
a 96 86 9
a 86 87 2
a 87 86 2
a 87 97 10
a 97 87 10
a 87 88 4
a 88 87 4
a 88 98 10
a 98 88 10
a 88 89 8
a 89 88 8
a 89 99 7
a 99 89 7
a 89 90 5
a 90 89 5
a 90 100 4
a 100 90 4
a 91 92 2
a 92 91 2
a 92 93 8
a 93 92 8
a 93 94 9
a 94 93 9
a 94 95 1
a 95 94 1
a 95 96 1
a 96 95 1
a 96 97 8
a 97 96 8
a 97 98 7
a 98 97 7
a 98 99 2
a 99 98 2
a 99 100 7
a 100 99 7
